100
150
99
99
98
97
97
95
95
92
91
90
90
89
88
87
86
86
86
85
83
83
83
82
80
78
78
77
76
76
75
75
74
72
70
69
67
62
61
61
59
59
59
58
58
56
56
55
52
52
52
51
51
49
47
47
46
44
43
42
42
39
37
37
36
31
31
31
28
27
25
25
25
23
21
19
18
17
16
16
16
16
15
14
14
14
14
13
13
10
10
9
7
7
6
6
5
4
2
2
1
1
